Cars = 1..100;
Options = 1..5;
Classes = 1..22;
sequenceMinCapacity = [0, 0, 0, 0, 0];
sequenceMaxCapacity = [1, 2, 1, 2, 1];
sequenceSize = [2, 3, 3, 5, 5];
numOrdered = [13, 8, 7, 1, 12, 5, 5, 6, 3, 12, 8, 2, 2, 1, 4, 4, 1, 2, 1, 1, 1, 1];
classHasOption = [| true, false, false, false, false
                  |false, false, false,  true, false
                  |false,  true, false, false, false
                  | true, false, false,  true, false
                  |false, false,  true, false, false
                  |false,  true, false,  true, false
                  |false, false,  true,  true, false
                  |false,  true,  true, false, false
                  | true, false, false, false,  true
                  | true,  true, false, false, false
                  | true,  true, false,  true, false
                  | true, false, false,  true,  true
                  | true,  true,  true, false, false
                  |false,  true, false,  true,  true
                  | true, false,  true, false, false
                  |false,  true, false, false,  true
                  | true,  true, false,  true,  true
                  | true, false,  true,  true, false
                  |false, false, false, false,  true
                  | true,  true,  true,  true, false
                  | true,  true, false, false,  true
                  |false,  true,  true,  true, false|];
optionOrdering = [1, 3, 4, 5, 2];
